p cnf 12 50 
11 2 3 0
-11 -12 -1 0
4 1 7 0
11 -7 -3 0
3 4 8 0
-8 -11 5 0
-1 -2 8 0
10 9 12 0
6 11 7 0
-2 -8 -4 0
3 -1 -8 0
7 -10 -11 0
11 -9 12 0
12 6 4 0
-5 7 6 0
9 -8 -10 0
-12 5 1 0
3 -5 6 0
4 -10 -2 0
-6 -5 -11 0
4 -7 6 0
-12 11 -9 0
-3 -10 -8 0
2 -7 -12 0
1 6 -11 0
11 8 7 0
11 -1 2 0
-12 1 -6 0
3 4 -1 0
6 -1 7 0
5 4 -1 0
7 -11 -4 0
1 -7 2 0
6 1 -7 0
11 7 -12 0
5 -4 10 0
-7 12 2 0
4 -6 -3 0
4 5 11 0
11 -3 5 0
3 8 7 0
6 -3 -5 0
-1 -9 10 0
2 8 -1 0
-5 -2 8 0
5 7 -12 0
6 -3 7 0
-10 -12 -5 0
-5 -7 -12 0
12 2 -10 0
